c This is the enc3 file generate by sty
p cnf 292 307
 1 2 3 0
 -1 -2 0
 -1 -3 0
 -2 -3 0
 4 5 6 0
 -4 -5 0
 -4 -6 0
 -5 -6 0
 7 8 9 0
 -7 -8 0
 -7 -9 0
 -8 -9 0
 10 11 12 0
 -10 -11 0
 -10 -12 0
 -11 -12 0
 13 14 15 0
 -13 -14 0
 -13 -15 0
 -14 -15 0
 16 17 18 0
 -16 -17 0
 -16 -18 0
 -17 -18 0
 19 20 21 0
 -19 -20 0
 -19 -21 0
 -20 -21 0
 22 23 24 0
 -22 -23 0
 -22 -24 0
 -23 -24 0
 25 26 27 0
 -25 -26 0
 -25 -27 0
 -26 -27 0
 28 29 30 0
 -28 -29 0
 -28 -30 0
 -29 -30 0
 31 32 33 0
 -31 -32 0
 -31 -33 0
 -32 -33 0
 -1 -9 -11 34 0
 -1 -8 -12 35 0
 -1 -9 -10 36 0
 -3 -7 -10 37 0
 -1 -9 -12 38 0
 -2 -9 -12 39 0
 -1 -8 -11 40 0
 -1 -7 -12 41 0
 -2 -8 -12 42 0
 -1 -7 -11 43 0
 -3 -8 -10 44 0
 -2 -7 -10 45 0
 -2 -9 -10 46 0
 -3 -7 -11 47 0
 -3 -8 -11 48 0
 -3 -7 -12 49 0
 -3 -9 -11 50 0
 -1 -8 -10 51 0
 -2 -8 -10 52 0
 -2 -7 -11 53 0
 -2 -7 -12 54 0
 -2 -8 -11 55 0
 -2 -9 -11 56 0
 -3 -9 -10 57 0
 -1 -7 -10 58 0
 -3 -8 -12 59 0
 -3 -9 -12 60 0
 -4 -9 -1 61 0
 -6 -8 -3 62 0
 -6 -7 -1 63 0
 -6 -7 -2 64 0
 -6 -8 -1 65 0
 -6 -9 -3 66 0
 -6 -8 -2 67 0
 -6 -7 -3 68 0
 -6 -9 -2 69 0
 -5 -7 -3 70 0
 -5 -8 -3 71 0
 -5 -9 -1 72 0
 -4 -9 -3 73 0
 -4 -9 -2 74 0
 -5 -8 -2 75 0
 -5 -7 -1 76 0
 -4 -8 -1 77 0
 -5 -7 -2 78 0
 -4 -7 -2 79 0
 -5 -8 -1 80 0
 -4 -7 -1 81 0
 -5 -9 -2 82 0
 -4 -8 -2 83 0
 -5 -9 -3 84 0
 -6 -9 -1 85 0
 -4 -8 -3 86 0
 -4 -7 -3 87 0
 -7 -18 88 0
 -9 -17 89 0
 -9 -18 90 0
 -7 -17 91 0
 -9 -16 92 0
 -8 -16 93 0
 -7 -16 94 0
 -8 -17 95 0
 -8 -18 96 0
 -12 -20 -17 -7 97 0
 -12 -21 -16 -7 98 0
 -12 -20 -18 -7 99 0
 -12 -20 -16 -7 100 0
 -12 -21 -16 -8 101 0
 -11 -21 -16 -8 102 0
 -12 -19 -17 -7 103 0
 -12 -20 -18 -8 104 0
 -12 -19 -16 -7 105 0
 -12 -19 -17 -8 106 0
 -12 -21 -17 -7 107 0
 -11 -21 -16 -9 108 0
 -12 -21 -18 -7 109 0
 -11 -19 -16 -9 110 0
 -12 -21 -17 -8 111 0
 -12 -19 -18 -7 112 0
 -11 -21 -16 -7 113 0
 -12 -21 -17 -9 114 0
 -12 -20 -17 -8 115 0
 -12 -21 -18 -8 116 0
 -10 -21 -18 -8 117 0
 -12 -20 -16 -8 118 0
 -12 -19 -18 -8 119 0
 -10 -19 -18 -8 120 0
 -11 -21 -17 -7 121 0
 -12 -20 -16 -9 122 0
 -12 -19 -17 -9 123 0
 -12 -21 -16 -9 124 0
 -11 -20 -16 -9 125 0
 -10 -20 -18 -8 126 0
 -11 -19 -17 -9 127 0
 -11 -19 -16 -8 128 0
 -12 -20 -17 -9 129 0
 -11 -21 -17 -8 130 0
 -11 -19 -18 -7 131 0
 -11 -20 -18 -7 132 0
 -11 -20 -16 -7 133 0
 -11 -19 -16 -7 134 0
 -10 -19 -16 -9 135 0
 -10 -19 -17 -8 136 0
 -11 -21 -18 -7 137 0
 -10 -20 -17 -8 138 0
 -10 -20 -17 -9 139 0
 -11 -20 -17 -7 140 0
 -11 -19 -17 -7 141 0
 -11 -19 -16 -7 142 0
 -11 -19 -16 -7 142 0
 -10 -19 -16 -9 143 0
 -10 -19 -16 -9 143 0
 -10 -21 -16 -7 144 0
 -10 -21 -16 -7 144 0
 -10 -20 -16 -8 145 0
 -10 -19 -16 -8 146 0
 -12 -19 -16 -8 147 0
 -10 -21 -17 -9 148 0
 -11 -21 -17 -9 149 0
 -11 -20 -17 -9 150 0
 -11 -20 -16 -8 151 0
 -10 -19 -17 -7 152 0
 -10 -20 -17 -7 153 0
 -11 -20 -17 -8 154 0
 -10 -21 -18 -7 155 0
 -11 -19 -17 -8 156 0
 -12 -19 -16 -9 157 0
 -10 -19 -16 -7 158 0
 -10 -20 -16 -7 159 0
 -10 -20 -18 -7 160 0
 -10 -19 -17 -9 161 0
 -10 -19 -18 -7 162 0
 -10 -21 -17 -8 163 0
 -10 -20 -16 -9 164 0
 -11 -20 -18 -8 165 0
 -10 -21 -16 -9 166 0
 -10 -21 -17 -7 167 0
 -11 -19 -18 -8 168 0
 -11 -21 -18 -8 169 0
 -10 -21 -16 -7 170 0
 -10 -21 -16 -8 171 0
 -15 -17 -8 172 0
 -15 -17 -7 173 0
 -15 -18 -7 174 0
 -15 -16 -8 175 0
 -15 -18 -8 176 0
 -15 -18 -9 177 0
 -14 -18 -7 178 0
 -13 -16 -7 179 0
 -15 -17 -9 180 0
 -13 -17 -9 181 0
 -14 -18 -8 182 0
 -13 -18 -9 183 0
 -14 -16 -7 184 0
 -13 -16 -7 185 0
 -14 -17 -8 186 0
 -14 -16 -8 187 0
 -14 -17 -7 188 0
 -15 -16 -7 189 0
 -13 -17 -7 190 0
 -13 -16 -8 191 0
 -13 -17 -8 192 0
 -14 -18 -9 193 0
 -13 -18 -8 194 0
 -14 -17 -9 195 0
 -14 -16 -9 196 0
 -13 -18 -7 197 0
 -18 198 0
 -16 199 0
 -17 200 0
 -21 -17 -9 201 0
 -21 -18 -9 202 0
 -21 -16 -9 203 0
 -21 -18 -7 204 0
 -21 -17 -8 205 0
 -19 -16 -7 206 0
 -21 -18 -8 207 0
 -20 -17 -9 208 0
 -20 -18 -7 209 0
 -20 -16 -9 210 0
 -20 -16 -7 211 0
 -20 -18 -9 212 0
 -20 -18 -8 213 0
 -21 -17 -7 214 0
 -21 -16 -8 215 0
 -20 -17 -7 216 0
 -20 -16 -8 217 0
 -19 -16 -8 218 0
 -20 -17 -8 219 0
 -19 -17 -7 220 0
 -19 -17 -8 221 0
 -19 -18 -8 222 0
 -21 -16 -7 223 0
 -19 -18 -9 224 0
 -19 -18 -7 225 0
 -19 -16 -9 226 0
 -19 -17 -9 227 0
 -24 -17 -8 228 0
 -24 -16 -8 229 0
 -24 -17 -7 230 0
 -24 -18 -9 231 0
 -24 -17 -9 232 0
 -24 -16 -9 233 0
 -23 -16 -7 234 0
 -23 -17 -7 235 0
 -23 -18 -7 236 0
 -24 -18 -7 237 0
 -23 -16 -9 238 0
 -23 -18 -8 239 0
 -23 -17 -8 240 0
 -23 -17 -9 241 0
 -23 -18 -9 242 0
 -22 -16 -7 243 0
 -23 -16 -8 244 0
 -22 -18 -8 245 0
 -24 -18 -8 246 0
 -24 -16 -7 247 0
 -22 -16 -8 248 0
 -22 -18 -9 249 0
 -22 -17 -9 250 0
 -22 -18 -7 251 0
 -22 -17 -8 252 0
 -22 -16 -9 253 0
 -22 -17 -7 254 0
 -25 -32 255 0
 -27 -33 256 0
 -26 -32 257 0
 -25 -31 258 0
 -27 -31 259 0
 -25 -33 260 0
 -26 -33 261 0
 -26 -31 262 0
 -27 -32 263 0
 -30 -32 -25 264 0
 -30 -31 -25 265 0
 -30 -32 -26 266 0
 -29 -31 -25 267 0
 -28 -31 -26 267 0
 -29 -31 -25 268 0
 -30 -33 -25 269 0
 -29 -32 -25 270 0
 -30 -33 -26 271 0
 -28 -33 -27 272 0
 -29 -32 -26 273 0
 -29 -33 -27 274 0
 -28 -32 -27 275 0
 -29 -33 -25 276 0
 -28 -31 -27 277 0
 -30 -31 -27 278 0
 -29 -32 -27 279 0
 -29 -33 -26 280 0
 -29 -31 -27 281 0
 -28 -33 -26 282 0
 -30 -32 -27 283 0
 -28 -33 -25 284 0
 -30 -33 -27 285 0
 -28 -32 -26 286 0
 -28 -32 -25 287 0
 -28 -31 -25 288 0
 -28 -31 -26 289 0
 -32 290 0
 -33 291 0
 -31 292 0
